Gurobi 12.0.3:   lim:time = 2000
Set parameter LogToConsole to value 1
  tech:outlev = 1
Set parameter InfUnbdInfo to value 1
Gurobi Optimizer version 12.0.3 build v12.0.3rc0 (win64 - Windows 11+.0 (26200.2))

CPU model: 12th Gen Intel(R) Core(TM) i7-12700, instruction set [SSE2|AVX|AVX2]
Thread count: 12 physical cores, 20 logical processors, using up to 20 threads

Non-default parameters:
TimeLimit  2000
InfUnbdInfo  1

Optimize a model with 38910 rows, 10492 columns and 254788 nonzeros
Model fingerprint: 0x4ba6b127
Model has 5850 quadratic constraints
Model has 676 general nonlinear constraints (1456 nonlinear terms)
Variable types: 4654 continuous, 5838 integer (0 binary)
Coefficient statistics:
  Matrix range     [1e+00, 1e+06]
  QMatrix range    [1e+00, 1e+00]
  QLMatrix range   [1e+00, 1e+01]
  Objective range  [3e+01, 5e+02]
  Bounds range     [1e+00, 1e+06]
  RHS range        [1e+00, 1e+06]
Presolve model has 676 nlconstr
Added 884 variables to disaggregate expressions.
Presolve removed 9842 rows and 2678 columns
Presolve time: 2.41s
Presolved: 44590 rows, 14003 columns, 221647 nonzeros
Presolved model has 1300 SOS constraint(s)
Presolved model has 3250 bilinear constraint(s)

Solving non-convex MIQCP

Variable types: 9355 continuous, 4648 integer (4564 binary)

Root simplex log...

Iteration    Objective       Primal Inf.    Dual Inf.      Time
       0    0.0000000e+00   2.561246e+05   0.000000e+00      6s
    4672    3.2000000e+01   0.000000e+00   0.000000e+00      6s

Root relaxation: objective 3.200000e+01, 4672 iterations, 0.15 seconds (0.13 work units)
Total elapsed time = 5.74s (DegenMoves)

    Nodes    |    Current Node    |     Objective Bounds      |     Work
 Expl Unexpl |  Obj  Depth IntInf | Incumbent    BestBd   Gap | It/Node Time

     0     0   32.00000    0  134          -   32.00000      -     -    6s
     0     0   32.00000    0  505          -   32.00000      -     -    8s
     0     0   32.00000    0  158          -   32.00000      -     -   14s
     0     0   32.00000    0  163          -   32.00000      -     -   18s
     0     0   32.00000    0  165          -   32.00000      -     -   19s
     0     0   32.00000    0  203          -   32.00000      -     -   22s
     0     0   32.00000    0  177          -   32.00000      -     -   24s
     0     2   32.00000    0  177          -   32.00000      -     -   30s
    27    29 infeasible    5               -   32.00000      -  1099   36s
    42    44 infeasible    5               -   32.00000      -  1424   40s
    59    65   32.00000    9  558          -   32.00000      -  1335   47s
    92    82 infeasible   11               -   32.00000      -  1189   56s
   119   124   32.00000   12  427          -   32.00000      -  1319   68s
   181   183   32.00000   19  405          -   32.00000      -  1184   80s
   267   305   32.00000   23  330          -   32.00000      -  1030   98s
   474   574   32.00000   31  345          -   32.00000      -   889  129s
   900  1205   32.00000   52  351          -   32.00000      -   678  187s
  1890  1703 infeasible  109               -   32.00000      -   453  249s
  2982  1704   32.00000   44 1713          -   32.00000      -   352  259s
  2984  1705   32.00000   33   75          -   32.00000      -   351  262s
  2986  1707  126.00000   39  330          -   32.00000      -   351  266s
  2987  1707  126.00000   48   71          -   32.00000      -   351  272s
  2988  1708   32.00000   79  205          -   32.00000      -   351  276s
  2989  1709   64.00000   72   93          -   32.00000      -   351  282s
  2990  1709   32.00000   33  483          -   32.00000      -   351  285s
  2992  1711   64.00000  116  530          -   32.00000      -   350  290s
  2997  1715   32.00000   38   56          -   32.00000      -   369  297s
  3000  1717   32.00000  104  262          -   32.00000      -   368  303s
  3001  1718   32.00000   78   55          -   32.00000      -   368  305s
  3008  1724   32.00006   83   54          -   32.00000      -   377  310s
  3015  1728   32.00000   40  433          -   32.00000      -   376  319s
H 3015  1641                     256.0000000   32.00000  87.5%   376  319s
  3016  1642   32.00000   74   57  256.00000   32.00000  87.5%   376  320s
  3019  1644   96.00000  137   59  256.00000   32.00000  87.5%   376  325s
  3021  1645  126.00000   42  424  256.00000   32.00000  87.5%   375  331s
  3024  1647   32.00000   30   73  256.00000   32.00000  87.5%   375  335s
  3025  1648   32.00000   65  495  256.00000   32.00000  87.5%   375  340s
  3026  1649   32.00000   97   69  256.00000   32.00000  87.5%   375  349s
  3027  1649   32.00006   95   69  256.00000   32.00000  87.5%   375  361s
  3034  1663  156.00000   39   71  256.00000   32.00000  87.5%   390  367s
  3042  1672  156.00000   40   71  256.00000   32.00000  87.5%   389  371s
  3054  1688 infeasible   41       256.00000   32.00000  87.5%   388  375s
  3078  1700   32.00000   43  466  256.00000   32.00000  87.5%   385  381s
  3120  1729   32.00000   44  466  256.00000   32.00000  87.5%   383  387s
  3143  1773   32.00000   47  315  256.00000   32.00000  87.5%   385  391s
  3196  1839   32.00000   57  244  256.00000   32.00000  87.5%   383  405s
H 3271  1731                     224.0000000   32.00000  85.7%   380  405s
  3291  1877  126.00000   65  157  224.00000   32.00000  85.7%   379  419s
  3483  2034   32.00000   83  227  224.00000   32.00000  85.7%   371  432s
  3725  2479   32.00000  100  199  224.00000   32.00000  85.7%   365  468s
  4273  3006   64.00000  128  123  224.00000   32.00000  85.7%   339  513s
  5016  3558  158.00000  168   87  224.00000   32.00000  85.7%   312  552s
H 5202  3411                     192.0000000   32.00000  83.3%   303  552s
  5886  4020  158.00000  201   77  192.00000   32.00000  83.3%   282  593s
  7044  4414  126.00000  101  137  192.00000   32.00000  83.3%   253  627s
  8039  4833  164.26087  153  163  192.00000   32.00000  83.3%   230  654s
  8794  5546   32.00000   67  227  192.00000   32.00000  83.3%   220  689s
  9626  6748  190.00000  145   69  192.00000   32.00000  83.3%   210  725s
 11156  8608  158.00000  198   95  192.00000   32.00000  83.3%   192  751s
 13644  9900 infeasible  107       192.00000   32.00000  83.3%   168  768s
 15383 10419 infeasible  115       192.00000   32.00000  83.3%   156  778s
 16048 11352   32.00000   87  138  192.00000   32.00000  83.3%   153  792s
 17197 11665   32.00000  106  220  192.00000   32.00000  83.3%   150  805s
 17566 12736  126.00000  115  189  192.00000   32.00000  83.3%   150  819s
 18873 12737   96.00000  121 1099  192.00000   32.00000  83.3%   144  828s
 18875 12738  126.00000  103   54  192.00000   32.00000  83.3%   144  831s
 18878 12740   64.00000  132   56  192.00000   32.00000  83.3%   144  836s
 18880 12742   94.00000   43  154  192.00000   32.00000  83.3%   144  842s
 18881 12742  158.00000  147  504  192.00000   32.00000  83.3%   144  847s
 18883 12744  158.00000  147  658  192.00000   32.00000  83.3%   144  857s
 18884 12744   32.00000  107  543  192.00000   32.00000  83.3%   144  869s
 18885 12745  158.00000  165  572  192.00000   32.00000  83.3%   144  873s
 18886 12746   64.00000  134  436  192.00000   32.00000  83.3%   144  880s
 18887 12746   64.00000   99  459  192.00000   32.00000  83.3%   144  885s
 18890 12748   96.00000  159  426  192.00000   32.00000  83.3%   144  893s
 18891 12749  158.00000  134  468  192.00000   32.00000  83.3%   144  896s
 18894 12751   96.00000  192   75  192.00000   32.00000  83.3%   144  911s
 18901 12763     cutoff   50       192.00000   32.00000  83.3%   148  929s
 18909 12772   32.00000   51  507  192.00000   32.00000  83.3%   148  943s
 18921 12791   32.00000   52  507  192.00000   32.00000  83.3%   148  958s
 18949 12801   32.00000   55  502  192.00000   32.00000  83.3%   148  967s
 18977 12812   32.00000   56  400  192.00000   32.00000  83.3%   147  979s
 19000 12825   32.00000   58  248  192.00000   32.00000  83.3%   148  984s
 19025 12849   32.00000   61  236  192.00000   32.00000  83.3%   148  990s
 19071 12894   32.00000   65  241  192.00000   32.00000  83.3%   148  998s
 19149 12945   32.00000   72  209  192.00000   32.00000  83.3%   148 1006s
 19243 13021   32.00000   82  229  192.00000   32.00000  83.3%   149 1022s
 19379 13112   32.00000   98  201  192.00000   32.00000  83.3%   148 1044s
 19561 13243   33.80194  120  289  192.00000   32.00000  83.3%   149 1063s
 19791 13455   34.18353  145  251  192.00000   32.00000  83.3%   149 1088s
 20108 13723   64.00000  170  164  192.00000   32.00000  83.3%   149 1143s
 20526 13956  158.00000  218   86  192.00000   32.00000  83.3%   149 1198s
 21007 14242  190.00000  267   60  192.00000   32.00000  83.3%   148 1254s
 21591 14570   64.00000  146  126  192.00000   32.00000  83.3%   147 1283s
 22209 14934   80.00000  182  125  192.00000   32.00000  83.3%   146 1321s
 22906 15481   96.00000  218   95  192.00000   32.00000  83.3%   146 1357s
H23222 14364                     160.0000000   32.00000  80.0%   145 1357s
 23967 15158     cutoff  124       160.00000   32.00000  80.0%   144 1400s
 25785 15693  126.00000  110  203  160.00000   32.00000  80.0%   140 1437s
 27138 16432   64.00000  126  140  160.00000   32.00000  80.0%   141 1476s
 28558 16936  126.00000  138  156  160.00000   32.00000  80.0%   140 1502s
 29812 18456  158.00000  144   91  160.00000   32.00000  80.0%   137 1524s
 32370 18333  128.00000  214   63  160.00000   32.00000  80.0%   131 1543s
 33335 19142   64.00000  115  120  160.00000   32.00000  80.0%   130 1559s
 34861 19439 infeasible  203       160.00000   32.00000  80.0%   127 1574s
 35899 20737   32.00000  138  196  160.00000   32.00000  80.0%   126 1587s
 38172 20777 infeasible  121       160.00000   32.00000  80.0%   122 1616s
 39278 21581  126.00000  137  132  160.00000   32.00000  80.0%   121 1633s
 41058 21376     cutoff  139       160.00000   32.00000  80.0%   119 1645s
 41629 22764  126.00000  132  128  160.00000   32.00000  80.0%   119 1659s
 43790 22477  126.00000  114  151  160.00000   32.00000  80.0%   116 1671s
 44343 22928  158.00000  165   78  160.00000   32.00000  80.0%   115 1683s
 45372 23354  126.00000  103  171  160.00000   32.00000  80.0%   114 1696s
 46456 23464     cutoff  161       160.00000   32.00000  80.0%   113 1709s
 47141 24296  126.00000   99  171  160.00000   32.00000  80.0%   113 1721s
 48590 24276   96.00000  132  109  160.00000   32.00000  80.0%   112 1737s
 49103 25449   96.00000  186  104  160.00000   32.00000  80.0%   112 1753s
 50774 25731  158.00000  184  129  160.00000   32.00000  80.0%   111 1770s
 51898 25910  158.00000  122  109  160.00000   32.00000  80.0%   110 1782s
 52625 26979   96.00000  168  108  160.00000   32.00000  80.0%   110 1796s
 54479 26681  126.00000  129  130  160.00000   32.00000  80.0%   108 1811s
 55013 27751  126.00000  110  156  160.00000   32.00000  80.0%   108 1826s
 56699 28487  126.00000  140  143  160.00000   32.00000  80.0%   107 1972s
 57850 30418 infeasible  107       160.00000   32.00000  80.0%   107 1999s
 59296 30418   32.00000  133  396  160.00000   32.00000  80.0%   107 2000s

Cutting planes:
  Gomory: 2
  Cover: 14
  Implied bound: 60
  MIR: 100
  Mixing: 2
  StrongCG: 130
  Flow cover: 742
  GUB cover: 396
  Inf proof: 1
  Zero half: 71
  RLT: 23
  Relax-and-lift: 849

Explored 60346 nodes (6473743 simplex iterations) in 2000.63 seconds (499.45 work units)
Thread count was 20 (of 20 available processors)

Solution count 4: 160 192 224 256 

Time limit reached
Best objective 1.600000000000e+02, best bound 3.200000000000e+01, gap 80.0000%

AMPL MP initial flat model has 9140 variables (78 integer, 5760 binary);
Objectives: 1 linear; 
Constraints:  38234 linear; 7202 quadratic;

AMPL MP final model has 10492 variables (78 integer, 5760 binary);
Objectives: 1 linear; 
Constraints:  38910 linear; 7202 quadratic;


Gurobi 12.0.3: time limit, feasible solution; objective 160
6.47374e+06 simplex iterations
60346 branching nodes
absmipgap=128, relmipgap=0.8
lp, wp, hp: begin
1: 10.000000 6.500000 1.500000
2: 10.000000 6.500000 1.500000
3: 10.000000 6.500000 1.500000
4: 10.000000 6.500000 1.500000
5: 10.000000 6.500000 1.500000
6: 10.000000 6.500000 1.500000
7: 7.100000 4.100000 1.700000
8: 7.100000 4.100000 1.700000
9: 7.100000 4.100000 1.700000
10: 7.100000 4.100000 1.700000
11: 7.100000 4.100000 1.700000
12: 7.100000 4.100000 1.700000
13: 7.100000 4.100000 1.700000
14: 7.100000 4.100000 1.700000
15: 7.100000 4.100000 1.700000
16: 7.100000 4.100000 1.700000
17: 7.100000 4.100000 1.700000
18: 7.100000 4.100000 1.700000
19: 7.100000 4.100000 1.700000
20: 7.100000 4.100000 1.700000
21: 7.100000 4.100000 1.700000
22: 7.100000 4.100000 1.700000
23: 7.100000 4.100000 1.700000
24: 7.100000 4.100000 1.700000
25: 7.100000 4.100000 1.700000
26: 7.100000 4.100000 1.700000
lp, wp, hp: end
LB, WB, HB: begin
1: 28.000000 15.000000 15.000000
2: 28.000000 15.000000 15.000000
3: 28.000000 15.000000 15.000000
4: 28.000000 15.000000 15.000000
5: 28.000000 15.000000 15.000000
6: 28.000000 15.000000 15.000000
7: 28.000000 15.000000 15.000000
8: 28.000000 15.000000 15.000000
9: 28.000000 15.000000 15.000000
10: 28.000000 15.000000 15.000000
11: 42.000000 32.000000 26.000000
12: 42.000000 32.000000 26.000000
13: 42.000000 32.000000 26.000000
14: 42.000000 32.000000 26.000000
15: 42.000000 32.000000 26.000000
16: 42.000000 32.000000 26.000000
17: 42.000000 32.000000 26.000000
18: 42.000000 32.000000 26.000000
19: 42.000000 32.000000 26.000000
20: 42.000000 32.000000 26.000000
21: 45.700000 45.700000 40.600000
22: 45.700000 45.700000 40.600000
23: 45.700000 45.700000 40.600000
24: 45.700000 45.700000 40.600000
25: 45.700000 45.700000 40.600000
26: 45.700000 45.700000 40.600000
27: 45.700000 45.700000 40.600000
28: 45.700000 45.700000 40.600000
29: 45.700000 45.700000 40.600000
30: 45.700000 45.700000 40.600000
31: 61.000000 46.000000 61.000000
32: 61.000000 46.000000 61.000000
33: 61.000000 46.000000 61.000000
34: 61.000000 46.000000 61.000000
35: 61.000000 46.000000 61.000000
36: 61.000000 46.000000 61.000000
37: 61.000000 46.000000 61.000000
38: 61.000000 46.000000 61.000000
39: 61.000000 46.000000 61.000000
40: 61.000000 46.000000 61.000000
LB, WB, HB: end
l_px, l_py, w_px, w_py: begin
1: 1 0 0 1
2: 1 0 0 1
3: 1 0 0 1
4: 1 0 0 1
5: 1 0 0 1
6: 1 0 0 1
7: 1 0 0 1
8: 1 0 0 1
9: 0 1 1 0
10: 0 1 1 0
11: 1 0 0 1
12: 1 0 0 1
13: 1 0 0 1
14: 1 0 0 1
15: 1 0 0 1
16: 0 1 1 0
17: 1 0 0 1
18: 1 0 0 1
19: 1 0 0 1
20: 1 0 0 1
21: 0 1 1 0
22: 1 0 0 1
23: 1 0 0 1
24: 1 0 0 1
25: 1 0 0 1
26: 1 0 0 1
l_px, l_py, w_px, w_py: end
xp, yp, zp, on_floor: begin
1: 18.000000 0.000000 0.000000 1
2: 18.000000 8.000000 0.000000 1
3: 0.000000 8.000000 0.000000 1
4: 18.000000 0.000000 0.000000 1
5: 0.000000 0.000000 0.000000 1
6: 0.000000 0.000000 0.000000 1
7: 17.000000 2.000000 0.000000 1
8: 15.000000 8.000000 0.000000 1
9: 12.000000 0.000000 0.000000 1
10: 13.000000 0.000000 0.000000 1
11: 17.000000 7.000000 0.000000 1
12: 4.000000 3.000000 0.000000 1
13: 4.000000 10.000000 0.000000 1
14: 17.000000 2.000000 0.000000 1
15: 10.000000 10.000000 0.000000 1
16: 12.000000 7.000000 0.000000 1
17: 4.000000 9.000000 0.000000 1
18: 7.000000 10.000000 0.000000 1
19: 4.000000 3.000000 0.000000 1
20: 10.000000 2.000000 0.000000 1
21: 10.000000 2.000000 0.000000 1
22: 17.000000 2.000000 0.000000 1
23: 17.000000 10.000000 0.000000 1
24: 4.000000 10.000000 0.000000 1
25: 17.000000 7.000000 0.000000 1
26: 4.000000 5.000000 0.000000 1
xp, yp, zp, on_floor: end
product ->carton: begin
1 -> 10
2 -> 3
3 -> 3
4 -> 5
5 -> 8
6 -> 10
7 -> 3
8 -> 5
9 -> 3
10 -> 5
11 -> 8
12 -> 3
13 -> 8
14 -> 8
15 -> 3
16 -> 10
17 -> 2
18 -> 5
19 -> 2
20 -> 10
21 -> 8
22 -> 2
23 -> 2
24 -> 10
25 -> 10
26 -> 5
product ->carton: end
